1 12 6 35 0 16 2 10 5 33 4 33 3 39
1 33 4 27 2 20 0 4 6 41 3 12 5 20
4 16 0 29 5 37 3 39 1 14 6 20 2 33
2 18 6 31 0 14 1 31 3 10 4 31 5 12
0 37 5 10 6 12 3 24 1 20 4 35 2 37
2 33 6 37 3 8 5 20 1 22 4 22 0 8
6 24 2 27 5 22 0 20 1 41 3 22 4 22
